15
1 0 5
2 0 3
2 1 6
3 0 2
3 1 2
3 2 8
4 0 5
4 1 3
4 2 4
4 3 4
5 0 4
5 1 4
5 2 2
5 3 8
5 4 7
6 0 7
6 1 8
6 2 8
6 3 4
6 4 1
6 5 7
7 0 5
7 1 6
7 2 2
7 3 2
7 4 6
7 5 6
7 6 2
8 0 3
8 1 5
8 2 1
8 3 5
8 4 2
8 5 7
8 6 3
8 7 6
9 0 6
9 1 4
9 2 6
9 3 6
9 4 2
9 5 7
9 6 8
9 7 6
9 8 1
10 0 4
10 1 8
10 2 1
10 3 1
10 4 4
10 5 3
10 6 3
10 7 8
10 8 4
10 9 7
11 0 2
11 1 7
11 2 1
11 3 7
11 4 8
11 5 1
11 6 4
11 7 7
11 8 8
11 9 4
11 10 7
12 0 7
12 1 5
12 2 6
12 3 5
12 4 2
12 5 3
12 6 2
12 7 5
12 8 4
12 9 5
12 10 6
12 11 8
13 0 1
13 1 3
13 2 7
13 3 5
13 4 5
13 5 4
13 6 4
13 7 2
13 8 3
13 9 3
13 10 6
13 11 3
13 12 5
14 0 4
14 1 5
14 2 6
14 3 6
14 4 2
14 5 1
14 6 7
14 7 3
14 8 7
14 9 5
14 10 7
14 11 4
14 12 6
14 13 6
